Minimize
  14 x_health_supplement_A + 25 x_health_supplement_B
Subject To
  c1: 30 x_health_supplement_A + 60 x_health_supplement_B >= 400
  c2: 50 x_health_supplement_A + 10 x_health_supplement_B >= 50
Integer
  x_health_supplement_A x_health_supplement_B
End